20
17
0 158 23 31 135 60 137 123 117 178 152 65 118 18 189 148 105
10
0 39 146 100 59 157 180 1 167 94
6
0 41 142 57 170 140
9
0 159 161 134 16 24 89 33 199
10
0 26 76 34 172 149 90 93 112 175
12
0 14 176 156 106 108 129 37 55 151 177 85
13
0 19 63 54 185 126 7 145 102 113 97 87 147
11
0 84 197 64 79 160 124 186 5 74 21
13
0 144 78 66 46 119 111 154 182 133 128 38 27
10
0 98 91 9 174 196 103 164 165 95
14
0 122 12 30 53 61 82 71 70 195 4 104 42 136
10
0 29 67 163 139 20 153 101 69 75
6
0 150 184 49 138 132
10
0 3 107 141 68 188 130 179 155 99
13
0 114 110 11 162 92 48 17 109 28 8 77 81
5
0 116 25 198 6
10
0 131 192 127 166 40 88 58 2 72
12
0 191 13 35 56 73 32 44 80 96 125 86
7
0 190 168 22 143 181 194
21
0 52 173 120 45 171 183 36 15 62 50 193 187 43 115 121 169 51 10 83 47
